c Circuit-CNF generated by TG-PRO v1.0 (c) Huan Chen and Joao Marques-Silva
p cnf 252 626
1 2 0
-1 -2 0
3 4 0
-3 -4 0
5 6 0
-5 -6 0
-7 -8 0
-7 -9 0
7 8 9 0
10 11 0
10 12 0
-10 -11 -12 0
13 14 0
13 15 0
-13 -14 -15 0
16 17 0
16 18 0
-16 -17 -18 0
19 20 0
-19 -20 0
21 22 0
-21 -22 0
23 24 0
-23 -24 0
25 26 0
-25 -26 0
27 28 0
-27 -28 0
29 30 0
-29 -30 0
31 32 0
-31 -32 0
33 34 0
-33 -34 0
35 36 0
-35 -36 0
37 38 0
-37 -38 0
39 40 0
-39 -40 0
41 42 0
-41 -42 0
43 44 0
-43 -44 0
45 46 0
-45 -46 0
47 48 0
-47 -48 0
49 50 0
-49 -50 0
51 52 0
-51 -52 0
53 54 0
-53 -54 0
55 19 0
55 22 0
-55 -19 -22 0
-56 -57 0
-56 -21 0
56 57 21 0
-58 -59 0
-58 -21 0
58 59 21 0
60 23 0
60 26 0
-60 -23 -26 0
61 27 0
61 30 0
-61 -27 -30 0
62 31 0
62 34 0
-62 -31 -34 0
63 35 0
63 38 0
-63 -35 -38 0
64 39 0
64 42 0
-64 -39 -42 0
65 43 0
65 46 0
-65 -43 -46 0
66 47 0
66 50 0
-66 -47 -50 0
67 51 0
67 54 0
-67 -51 -54 0
-68 -69 0
-68 -25 0
68 69 25 0
-70 -71 0
-70 -25 0
70 71 25 0
-72 -73 0
-72 -29 0
72 73 29 0
-74 -75 0
-74 -29 0
74 75 29 0
-76 -77 0
-76 -33 0
76 77 33 0
-78 -79 0
-78 -33 0
78 79 33 0
-80 -81 0
-80 -37 0
80 81 37 0
-82 -83 0
-82 -37 0
82 83 37 0
-84 -85 0
-84 -41 0
84 85 41 0
-86 -87 0
-86 -41 0
86 87 41 0
-88 -89 0
-88 -45 0
88 89 45 0
-90 -91 0
-90 -45 0
90 91 45 0
-92 -93 0
-92 -49 0
92 93 49 0
-94 -95 0
-94 -49 0
94 95 49 0
-96 -97 0
-96 -53 0
96 97 53 0
-98 -99 0
-98 -53 0
98 99 53 0
-2 100 0
-2 67 0
2 -100 -67 0
101 2 0
-101 -2 0
102 2 0
-102 -2 0
-103 101 55 0
103 101 -55 0
-103 -101 -55 0
103 -101 55 0
-104 101 60 0
104 101 -60 0
-104 -101 -60 0
104 -101 60 0
-105 101 61 0
105 101 -61 0
-105 -101 -61 0
105 -101 61 0
-106 101 62 0
106 101 -62 0
-106 -101 -62 0
106 -101 62 0
-107 101 63 0
107 101 -63 0
-107 -101 -63 0
107 -101 63 0
-108 101 64 0
108 101 -64 0
-108 -101 -64 0
108 -101 64 0
109 20 0
109 102 0
-109 -20 -102 0
-110 101 65 0
110 101 -65 0
-110 -101 -65 0
110 -101 65 0
111 102 0
111 24 0
-111 -102 -24 0
-112 101 66 0
112 101 -66 0
-112 -101 -66 0
112 -101 66 0
113 102 0
113 28 0
-113 -102 -28 0
-114 101 67 0
114 101 -67 0
-114 -101 -67 0
114 -101 67 0
115 102 0
115 32 0
-115 -102 -32 0
116 102 0
116 36 0
-116 -102 -36 0
117 102 0
117 40 0
-117 -102 -40 0
118 102 0
118 44 0
-118 -102 -44 0
119 102 0
119 48 0
-119 -102 -48 0
120 102 0
120 52 0
-120 -102 -52 0
121 103 0
121 56 0
-121 -103 -56 0
122 103 0
122 58 0
-122 -103 -58 0
123 104 0
123 68 0
-123 -104 -68 0
124 105 0
124 72 0
-124 -105 -72 0
125 106 0
125 76 0
-125 -106 -76 0
126 107 0
126 80 0
-126 -107 -80 0
127 108 0
127 84 0
-127 -108 -84 0
128 110 0
128 88 0
-128 -110 -88 0
129 112 0
129 92 0
-129 -112 -92 0
130 114 0
130 96 0
-130 -114 -96 0
131 104 0
131 70 0
-131 -104 -70 0
132 105 0
132 74 0
-132 -105 -74 0
133 106 0
133 78 0
-133 -106 -78 0
134 107 0
134 82 0
-134 -107 -82 0
135 108 0
135 86 0
-135 -108 -86 0
136 110 0
136 90 0
-136 -110 -90 0
137 112 0
137 94 0
-137 -112 -94 0
138 114 0
138 98 0
-138 -114 -98 0
-4 139 0
-4 130 0
4 -139 -130 0
140 122 0
-140 -122 0
141 131 0
-141 -131 0
142 132 0
-142 -132 0
143 133 0
-143 -133 0
144 134 0
-144 -134 0
145 135 0
-145 -135 0
146 136 0
-146 -136 0
147 137 0
-147 -137 0
148 138 0
-148 -138 0
149 4 0
-149 -4 0
150 4 0
-150 -4 0
-151 149 121 0
151 149 -121 0
-151 -149 -121 0
151 -149 121 0
-152 149 123 0
152 149 -123 0
-152 -149 -123 0
152 -149 123 0
-153 149 124 0
153 149 -124 0
-153 -149 -124 0
153 -149 124 0
-154 149 125 0
154 149 -125 0
-154 -149 -125 0
154 -149 125 0
155 57 0
155 150 0
-155 -57 -150 0
-156 149 126 0
156 149 -126 0
-156 -149 -126 0
156 -149 126 0
157 150 0
157 69 0
-157 -150 -69 0
-158 149 127 0
158 149 -127 0
-158 -149 -127 0
158 -149 127 0
159 150 0
159 73 0
-159 -150 -73 0
-160 149 128 0
160 149 -128 0
-160 -149 -128 0
160 -149 128 0
161 150 0
161 77 0
-161 -150 -77 0
-162 149 129 0
162 149 -129 0
-162 -149 -129 0
162 -149 129 0
163 150 0
163 81 0
-163 -150 -81 0
-164 149 130 0
164 149 -130 0
-164 -149 -130 0
164 -149 130 0
165 150 0
165 85 0
-165 -150 -85 0
166 150 0
166 89 0
-166 -150 -89 0
167 150 0
167 93 0
-167 -150 -93 0
168 150 0
168 97 0
-168 -150 -97 0
169 151 0
169 140 0
-169 -151 -140 0
170 152 0
170 141 0
-170 -152 -141 0
171 153 0
171 142 0
-171 -153 -142 0
172 154 0
172 143 0
-172 -154 -143 0
173 156 0
173 144 0
-173 -156 -144 0
174 158 0
174 145 0
-174 -158 -145 0
175 160 0
175 146 0
-175 -160 -146 0
176 162 0
176 147 0
-176 -162 -147 0
177 164 0
177 148 0
-177 -164 -148 0
-6 178 0
-6 177 0
6 -178 -177 0
179 6 0
-179 -6 0
180 59 0
180 179 0
-180 -59 -179 0
181 179 0
181 71 0
-181 -179 -71 0
182 179 0
182 75 0
-182 -179 -75 0
183 179 0
183 79 0
-183 -179 -79 0
184 179 0
184 83 0
-184 -179 -83 0
185 179 0
185 87 0
-185 -179 -87 0
186 179 0
186 91 0
-186 -179 -91 0
187 179 0
187 95 0
-187 -179 -95 0
188 179 0
188 99 0
-188 -179 -99 0
189 190 0
189 180 0
-189 -190 -180 0
191 192 0
191 26 0
-191 -192 -26 0
193 194 0
193 30 0
-193 -194 -30 0
195 196 0
195 34 0
-195 -196 -34 0
12 197 0
12 38 0
-12 -197 -38 0
198 199 0
198 42 0
-198 -199 -42 0
200 201 0
200 46 0
-200 -201 -46 0
202 203 0
202 50 0
-202 -203 -50 0
204 205 0
204 54 0
-204 -205 -54 0
8 189 0
-8 -189 0
-9 206 0
-9 204 0
9 -206 -204 0
207 195 0
-207 -195 0
208 198 0
-208 -198 0
209 200 0
-209 -200 0
210 202 0
-210 -202 0
211 193 0
211 207 0
-211 -193 -207 0
212 213 0
212 12 0
-212 -213 -12 0
15 214 0
15 209 0
-15 -214 -209 0
18 215 0
18 210 0
-18 -215 -210 0
-216 191 0
-216 193 0
216 -191 -193 0
-11 216 0
-11 211 0
11 -216 -211 0
-217 191 0
-217 193 0
217 -191 -193 0
-14 217 0
-14 212 0
14 -217 -212 0
-218 191 0
-218 211 0
218 -191 -211 0
-17 218 0
-17 212 0
17 -218 -212 0
-219 55 0
-219 60 0
219 -55 -60 0
-220 219 0
-220 61 0
220 -219 -61 0
-221 220 0
-221 62 0
221 -220 -62 0
-222 221 0
-222 63 0
222 -221 -63 0
-223 222 0
-223 64 0
223 -222 -64 0
-224 223 0
-224 65 0
224 -223 -65 0
-100 224 0
-100 66 0
100 -224 -66 0
-225 121 0
-225 123 0
225 -121 -123 0
-226 225 0
-226 124 0
226 -225 -124 0
-227 226 0
-227 125 0
227 -226 -125 0
-228 227 0
-228 126 0
228 -227 -126 0
-229 228 0
-229 127 0
229 -228 -127 0
-230 229 0
-230 128 0
230 -229 -128 0
-139 230 0
-139 129 0
139 -230 -129 0
-231 169 0
-231 170 0
231 -169 -170 0
-232 231 0
-232 171 0
232 -231 -171 0
-233 232 0
-233 172 0
233 -232 -172 0
-234 233 0
-234 173 0
234 -233 -173 0
-235 234 0
-235 174 0
235 -234 -174 0
-236 235 0
-236 175 0
236 -235 -175 0
-178 236 0
-178 176 0
178 -236 -176 0
-237 22 0
-237 109 0
237 -22 -109 0
-190 237 0
-190 155 0
190 -237 -155 0
-238 111 0
-238 157 0
238 -111 -157 0
-192 238 0
-192 181 0
192 -238 -181 0
-239 113 0
-239 159 0
239 -113 -159 0
-194 239 0
-194 182 0
194 -239 -182 0
-240 115 0
-240 161 0
240 -115 -161 0
-196 240 0
-196 183 0
196 -240 -183 0
-241 116 0
-241 163 0
241 -116 -163 0
-197 241 0
-197 184 0
197 -241 -184 0
-242 117 0
-242 165 0
242 -117 -165 0
-199 242 0
-199 185 0
199 -242 -185 0
-243 118 0
-243 166 0
243 -118 -166 0
-201 243 0
-201 186 0
201 -243 -186 0
-244 119 0
-244 167 0
244 -119 -167 0
-203 244 0
-203 187 0
203 -244 -187 0
-245 120 0
-245 168 0
245 -120 -168 0
-205 245 0
-205 188 0
205 -245 -188 0
-246 191 0
-246 193 0
246 -191 -193 0
-247 246 0
-247 195 0
247 -246 -195 0
-248 247 0
-248 12 0
248 -247 -12 0
-249 248 0
-249 198 0
249 -248 -198 0
-250 249 0
-250 200 0
250 -249 -200 0
-206 250 0
-206 202 0
206 -250 -202 0
-251 193 0
-251 195 0
251 -193 -195 0
-213 251 0
-213 208 0
213 -251 -208 0
-214 12 0
-214 195 0
214 -12 -195 0
-252 193 0
-252 195 0
252 -193 -195 0
-215 252 0
-215 200 0
215 -252 -200 0
